SPARKNaCl/why3-cvc5/sparknacl-hashing-sha2_common.adb_87_42_range_check3_1.smt2
;; produced by cvc5.drv ;;
(set-logic ALL)
(set-info :smt-lib-version 2.6)
;;; generated by SMT-LIB2 driver
;;; SMT-LIB2 driver: bit-vectors, common part
;;; SMT-LIB2: integer arithmetic
;; "pow2"
(declare-fun pow2 (Int) Int)

(declare-const two_power_size_minus_one Int)

;; "two_power_size_minus_one_val"
(assert (= two_power_size_minus_one (pow2 (- 8 1))))

;; "min"
(define-fun min ((x Int) (y Int)) Int
  (ite (<= x y) x y))

;; "max"
(define-fun max ((x Int) (y Int)) Int
  (ite (<= x y) y x))

;; "Min_r"
(assert (forall ((x Int) (y Int)) (=> (<= y x) (= (min x y) y))))

;; "Max_l"
(assert (forall ((x Int) (y Int)) (=> (<= y x) (= (max x y) x))))

;; "Min_comm"
(assert (forall ((x Int) (y Int)) (= (min x y) (min y x))))

;; "Max_comm"
(assert (forall ((x Int) (y Int)) (= (max x y) (max y x))))

;; "Min_assoc"
(assert
  (forall ((x Int) (y Int) (z Int)) (= (min (min x y) z) (min x (min y z)))))

;; "Max_assoc"
(assert
  (forall ((x Int) (y Int) (z Int)) (= (max (max x y) z) (max x (max y z)))))

;; "lsr"
(declare-fun lsr ((_ BitVec 64)
  Int) (_ BitVec 64))

(declare-const two_power_size_minus_one1 Int)

;; "two_power_size_minus_one_val"
(assert (= two_power_size_minus_one1 (pow2 (- 64 1))))

;; "lsr_bv_is_lsr"
(assert
  (forall ((x (_ BitVec 64)) (n (_ BitVec 64)))
    (= (bvlshr x n) (lsr x (bv2nat n)))))

(declare-const input (_ BitVec 64))

(declare-sort byte 0)

(declare-datatypes ((byte__init_wrapper 0))
  (((byte__init_wrapperqtmk (rec__value byte)(us_attr__init Bool)))))

;; "big_endian_get_byte"
(declare-fun big_endian_get_byte ((_ BitVec 64)
  Int) (_ BitVec 8))

;; "big_endian_get_byte__function_guard"
(declare-fun big_endian_get_byte__function_guard ((_ BitVec 8)
  (_ BitVec 64)
  Int) Bool)

(declare-sort map1 0)

;; "has_bounds"
(declare-fun has_bounds (map1
  Int
  Int) Bool)

;; "get"
(declare-fun get (map1
  Int) byte__init_wrapper)

;; "set"
(declare-fun set (map1
  Int
  byte__init_wrapper) map1)

;; "set_eq"
(assert
  (forall ((a map1) (i Int) (v byte__init_wrapper))
    (! (= (get (set a i v) i) v) :pattern ((set a i v)) )))

;; "set_neq"
(assert
  (forall ((a map1) (i Int) (v byte__init_wrapper))
    (! (forall ((j Int))
         (! (=> (not (= i j)) (= (get (set a i v) j) (get a j))) :pattern (
         (get
           a
           j)) :pattern ((get (set a i v) j)) )) :pattern ((set a i v)) )))

;; "set_has_bounds"
(assert
  (forall ((a map1) (i Int) (f Int) (l Int) (v byte__init_wrapper))
    (! (=>
         (and (<= f i) (<= i l))
         (=> (has_bounds a f l) (has_bounds (set a i v) f l))) :pattern (
    (has_bounds
      (set a i v)
      f
      l)) )))

;; "slice"
(declare-fun slice (map1
  Int
  Int) map1)

;; "slice_eq"
(assert
  (forall ((a map1) (f Int) (l Int))
    (! (=> (has_bounds a f l) (= (slice a f l) a)) :pattern ((slice a f l)
    (has_bounds a f l)) )))

;; "slice_slice"
(assert
  (forall ((a map1) (f1 Int) (l1 Int) (f2 Int) (l2 Int))
    (! (=>
         (and (<= f1 f2) (<= l2 l1))
         (= (slice (slice a f1 l1) f2 l2) (slice a f2 l2))) :pattern (
    (slice
      (slice a f1 l1)
      f2
      l2)) )))

;; "slice_def"
(assert
  (forall ((a map1) (f Int) (l Int))
    (! (forall ((i Int))
         (! (=> (and (<= f i) (<= i l)) (= (get (slice a f l) i) (get a i))) :pattern (
         (get
           (slice a f l)
           i)) :pattern ((get a i)) )) :pattern ((slice a f l)) )))

;; "slice_has_bounds"
(assert
  (forall ((a map1) (f Int) (l Int))
    (! (has_bounds (slice a f l) f l) :pattern ((has_bounds
                                                  (slice a f l)
                                                  f
                                                  l)) )))

;; "to_rep"
(declare-fun to_rep (byte) (_ BitVec 8))

;; "of_rep"
(declare-fun of_rep ((_ BitVec 8)) byte)

;; "inversion_axiom"
(assert
  (forall ((x byte)) (! (= (of_rep (to_rep x)) x) :pattern ((to_rep x)) )))

;; "range_axiom"
(assert true)

;; "coerce_axiom"
(assert
  (forall ((x (_ BitVec 8)))
    (! (= (to_rep (of_rep x)) x) :pattern ((to_rep (of_rep x))) )))

;; "in_range"
(define-fun in_range ((x Int)) Bool
  (and (<= 0 x) (<= x 7)))

(declare-sort tinteger_32B 0)

;; "tinteger_32B'int"
(declare-fun tinteger_32Bqtint (tinteger_32B) Int)

;; "tinteger_32B'axiom"
(assert
  (forall ((i tinteger_32B))
    (and
      (<= (- 2147483648) (tinteger_32Bqtint i))
      (<= (tinteger_32Bqtint i) 2147483647))))

;; "in_range"
(define-fun in_range1 ((x Int)) Bool
  (and (<= (- 2147483648) x) (<= x 2147483647)))

;; "to_rep"
(define-fun to_rep1 ((x tinteger_32B)) Int
  (tinteger_32Bqtint x))

;; "of_rep"
(declare-fun of_rep1 (Int) tinteger_32B)

;; "inversion_axiom"
(assert
  (forall ((x tinteger_32B))
    (! (= (of_rep1 (to_rep1 x)) x) :pattern ((to_rep1 x)) )))

;; "range_axiom"
(assert
  (forall ((x tinteger_32B))
    (! (in_range1 (to_rep1 x)) :pattern ((to_rep1 x)) )))

;; "coerce_axiom"
(assert
  (forall ((x Int))
    (! (=> (in_range1 x) (= (to_rep1 (of_rep1 x)) x)) :pattern ((to_rep1
                                                                  (of_rep1 x))) )))

(declare-datatypes ((t 0))
  (((tqtmk (rec__first tinteger_32B)(rec__last tinteger_32B)))))

;; "mk"
(declare-fun mk (Int
  Int) t)

;; "mk_def"
(assert
  (forall ((f Int) (l Int))
    (! (=>
         (in_range1 f)
         (=>
           (in_range1 l)
           (and
             (= (to_rep1 (rec__first (mk f l))) f)
             (= (to_rep1 (rec__last (mk f l))) l)))) :pattern ((mk f l)) )))

(declare-datatypes ((us_t 0))
  (((us_tqtmk (elts map1)(rt t)))))

;; "of_array"
(define-fun of_array ((a map1) (f Int) (l Int)) us_t
  (us_tqtmk a (mk f l)))

;; "big_endian_get_byte__post_axiom"
(assert
  (forall ((param__input (_ BitVec 64)))
    (forall ((param__index Int))
      (! (=>
           (in_range param__index)
           (let ((result (big_endian_get_byte param__input param__index)))
             (=>
               (big_endian_get_byte__function_guard
                 result
                 param__input
                 param__index)
               (= result ((_ extract 7 0) (bvurem (bvlshr param__input ((_ int2bv 64) (* (- 7 param__index) 8))) #x0000000000000100)))))) :pattern (
      (big_endian_get_byte
        param__input
        param__index)) ))))

;; Goal "def'vc"
;; File "sparknacl-hashing-sha2_common.ads", line 10, characters 0-0
(assert
  (not
  (forall ((output map1))
    (=>
      (has_bounds output 0 7)
      (forall ((x (_ BitVec 64)))
        (=>
          (= x input)
          (forall ((o byte))
            (=>
              (= (to_rep o) ((_ extract 7 0) (bvurem x #x0000000000000100)))
              (forall ((output1 map1))
                (=>
                  (= output1 (set output 7 (byte__init_wrapperqtmk o true)))
                  (=>
                    (= (us_attr__init (get output1 7)) true)
                    (=>
                      (big_endian_get_byte__function_guard
                        (big_endian_get_byte input 7)
                        input
                        7)
                      (=>
                        (= (to_rep (rec__value (get output1 7))) (big_endian_get_byte
                                                                   input
                                                                   7))
                        (forall ((i Int))
                          (=>
                            (= i 6)
                            (=>
                              (= (and (ite (<= 0 i) true false) (ite (<= i 6)
                                                                  true
                                                                  false)) true)
                              (forall ((x1 (_ BitVec 64)))
                                (=>
                                  (= x1 (bvlshr x ((_ int2bv 64) 8)))
                                  (forall ((o1 byte))
                                    (=>
                                      (= (to_rep o1) ((_ extract 7 0) (bvurem x1 #x0000000000000100)))
                                      (forall ((output2 map1))
                                        (=>
                                          (= output2 (set
                                                       output1
                                                       i
                                                       (byte__init_wrapperqtmk
                                                         o1
                                                         true)))
                                          (=>
                                            (=>
                                              (= x1 (bvlshr input ((_ int2bv 64) (* (- 7 i) 8))))
                                              (=>
                                                (<= i 7)
                                                (and
                                                  (and (<= 0 i) (<= i 7))
                                                  (and (<= 0 7) (<= 7 7)))))
                                            (forall ((output3 map1) (x2 (_ BitVec 64)) (i1 Int))
                                              (=>
                                                (forall ((j Int))
                                                  (big_endian_get_byte__function_guard
                                                    (big_endian_get_byte
                                                      input
                                                      j)
                                                    input
                                                    j))
                                                (=>
                                                  (and
                                                    (and
                                                      (= x2 (bvlshr input ((_ int2bv 64) (* (- 7 i1) 8))))
                                                      (forall ((temp___709 Int))
                                                        (=>
                                                          (and
                                                            (<= i1 temp___709)
                                                            (<= temp___709 7))
                                                          (= (us_attr__init
                                                               (get
                                                                 (slice
                                                                   output3
                                                                   i1
                                                                   7)
                                                                 temp___709)) true))))
                                                    (forall ((j Int))
                                                      (=>
                                                        (and
                                                          (<= i1 j)
                                                          (<= j 7))
                                                        (= (to_rep
                                                             (rec__value
                                                               (get
                                                                 output3
                                                                 j))) 
                                                        (big_endian_get_byte
                                                          input
                                                          j)))))
                                                  (=>
                                                    (= (and (ite (and
                                                                   (has_bounds
                                                                    output3
                                                                    0
                                                                    7)
                                                                   (forall 
                                                                    ((temp___687 Int))
                                                                    (=>
                                                                    (and
                                                                    (<= 0 temp___687)
                                                                    (<= temp___687 7))
                                                                    (=>
                                                                    (or
                                                                    (< 6 temp___687)
                                                                    (or
                                                                    (< temp___687 0)
                                                                    (< temp___687 i1)))
                                                                    (= 
                                                                    (get
                                                                    output3
                                                                    temp___687) 
                                                                    (get
                                                                    output1
                                                                    temp___687))))))
                                                              true
                                                              false) 
                                                    (ite (and
                                                           (<= 0 i1)
                                                           (<= i1 6))
                                                      true
                                                      false)) true)
                                                    (=>
                                                      (not (= i1 0))
                                                      (forall ((i2 Int))
                                                        (=>
                                                          (= i2 (- i1 1))
                                                          (forall ((x3 (_ BitVec 64)))
                                                            (=>
                                                              (= x3 (bvlshr x2 ((_ int2bv 64) 8)))
                                                              (forall 
                                                                ((o2 byte))
                                                                (=>
                                                                  (= 
                                                                  (to_rep
                                                                    o2) ((_ extract 7 0) (bvurem x3 #x0000000000000100)))
                                                                  (forall 
                                                                    ((output4 map1))
                                                                    (=>
                                                                    (= output4 
                                                                    (set
                                                                    output3
                                                                    i2
                                                                    (byte__init_wrapperqtmk
                                                                    o2
                                                                    true)))
                                                                    (let ((o3 (bvlshr 
                                                                    input ((_ int2bv 64) (* (- 7 i2) 8)))))
                                                                    (=>
                                                                    (=>
                                                                    (= x3 o3)
                                                                    (=>
                                                                    (<= i2 7)
                                                                    (and
                                                                    (and
                                                                    (<= 0 i2)
                                                                    (<= i2 7))
                                                                    (and
                                                                    (<= 0 7)
                                                                    (<= 7 7)))))
                                                                    (=>
                                                                    (and
                                                                    (= x3 o3)
                                                                    (forall 
                                                                    ((temp___695 Int))
                                                                    (=>
                                                                    (and
                                                                    (<= i2 temp___695)
                                                                    (<= temp___695 7))
                                                                    (= 
                                                                    (us_attr__init
                                                                    (get
                                                                    (slice
                                                                    output4
                                                                    i2
                                                                    7)
                                                                    temp___695)) true))))
                                                                    (forall 
                                                                    ((usf Int))
                                                                    (=>
                                                                    (= (and 
                                                                    (ite (<= i2 usf)
                                                                    true
                                                                    false) 
                                                                    (ite (<= usf 7)
                                                                    true
                                                                    false)) true)
                                                                    (<= 0 usf))))))))))))))))))))))))))))))))))))))))))

(check-sat)
